# ISOTERMA BULK 864

dimension	3
boundary	p p p
units		metal
atom_style	atomic
neighbor	0.5 bin
neigh_modify	every 1 delay 5 check yes

#read_restart    tmp.restart.50000 #LEE EL RESTART
read_data	data.foam_relaxed#bulk_864.dat  #agramos las estructura inicial
mass		1 106.42  ###Pd       
mass		2 1.0      ####hidrogeno

# EAM potentials
pair_style eam/alloy        ###definicion de los potenciales interatomicos
pair_coeff * * PdH_zhou.eam Pd H  ###


group    Pd  type  1   # Atomos de Pd con un nro fijo
group    H   type  2   #Atomos de H que seran insertados/removidos 

variable  mu equal -2.37        #  potencial quimico
variable i loop 20         # NUMERO DE PUNTOS DE ISOT
label           loop

variable  mu equal (${mu}+0.01)   #incremento potencial quimico

print		"pot quim - loop i is ${i} ${mu}"

fix 1 Pd npt temp 300.0 300.0 100.0 iso 0.0 0.0 1000.0
fix 2 Pd temp/rescale 100 300.0 300.0 0.02 0.5
fix 3 H gcmc 1000 1000 1000 2 29494 300.0 ${mu} 0.01    ###inserta particulas dado un potencial quimico

variable        NPD   equal "count(Pd)"
variable        NH    equal "count(H)"

#fix extra all print 200 "${NPD} ${NH} ${mu}" append SingPart.txt screen no title   "  "                      # screen no escribe en el txt no el log
 
compute 1 all ke/atom
compute 3 all pe/atom
#compute 5 all coord/atom 2.0

thermo_style	custom step temp pe ke etotal press vol pxx pyy pzz pxy pxz pyz

thermo		200
dump	myDump1 all custom 1000000 dump.bulk864.* x y z vx vy vz type id 
dump	myDump2 all custom 1000000 dump.bulk864.equilAll x y z vx vy vz type id 

restart		1000000 restart.*
run		1000000

print "${NPD} ${NH} ${mu}" append Isoterma.txt screen no 
uncompute 1
uncompute 3 
#uncompute 5
undump	myDump1
undump	myDump2

next            i
jump            gcmc_bulk_isot.inp loop





